(declare-const in71 Int)
(declare-const in62 Int)
(declare-const in61 Int)
(declare-const in64 Int)
(declare-const in63 Int)
(declare-const in21 Int)
(declare-const in65 Int)
(declare-const in51 Int)
(declare-const in95 Int)
(declare-const in94 Int)
(declare-const in53 Int)
(declare-const in97 Int)
(declare-const in52 Int)
(declare-const in96 Int)
(declare-const in54 Int)
(declare-const in98 Int)
(declare-const in106 Int)
(declare-const in107 Int)
(declare-const in104 Int)
(declare-const in105 Int)
(declare-const in91 Int)
(declare-const in93 Int)
(declare-const in108 Int)
(declare-const in109 Int)
(declare-const in92 Int)
(declare-const in84 Int)
(declare-const in83 Int)
(declare-const in42 Int)
(declare-const in86 Int)
(declare-const in41 Int)
(declare-const in85 Int)
(declare-const in102 Int)
(declare-const in43 Int)
(declare-const in87 Int)
(declare-const in103 Int)
(declare-const in02 Int)
(declare-const in101 Int)
(declare-const in01 Int)
(declare-const in04 Int)
(declare-const in03 Int)
(declare-const in06 Int)
(declare-const in05 Int)
(declare-const in08 Int)
(declare-const in07 Int)
(declare-const in09 Int)
(declare-const in82 Int)
(declare-const in81 Int)
(declare-const in010 Int)
(declare-const in73 Int)
(declare-const in72 Int)
(declare-const in31 Int)
(declare-const in75 Int)
(declare-const in74 Int)
(declare-const in32 Int)
(declare-const in76 Int)

(assert (and (and (and (and (and (and (and (and (and (and (and (and (and (and (and (and (and (and (and (and (and (and (and (and (and (and (and (and (and (and (and (and (and (and (and (and (and (and (and (and (and (and (and (and (and (and (and (and (and (and (and (and (and (and (and (and (and (and (and (and (and (and (and (and (and (and (and (and (and (and (and (and (and (and (and (and (and (and (and (and (and (and (and (and (and (and (and (and (and  ( <  in02 in01)  ( <  in03 in02))  ( <  in04 in03))  ( <  in05 in04))  ( <  in06 in05))  ( <  in07 in06))  ( <  in08 in07))  ( <  in09 in08))  ( <  in010 in09))  ( <  ( +  in101 in010) in01))  ( <  ( +  in102 in010) in02))  ( <  ( +  in103 in010) in03))  ( <  ( +  in104 in010) in04))  ( <  ( +  in105 in010) in05))  ( <  ( +  in106 in010) in06))  ( <  ( +  in107 in010) in07))  ( <  ( +  in108 in010) in08))  ( <  ( +  in109 in010) in09))  ( <  ( +  in102 in010) ( +  in101 in010)))  ( <  ( +  in103 in010) ( +  in102 in010)))  ( <  ( +  in104 in010) ( +  in103 in010)))  ( <  ( +  in105 in010) ( +  in104 in010)))  ( <  ( +  in106 in010) ( +  in105 in010)))  ( <  ( +  in107 in010) ( +  in106 in010)))  ( <  ( +  in108 in010) ( +  in107 in010)))  ( <  ( +  in109 in010) ( +  in108 in010)))  ( <  ( +  in91 ( +  in109 in010)) ( +  in101 in010)))  ( <  ( +  in92 ( +  in109 in010)) ( +  in102 in010)))  ( <  ( +  in93 ( +  in109 in010)) ( +  in103 in010)))  ( <  ( +  in94 ( +  in109 in010)) ( +  in104 in010)))  ( <  ( +  in95 ( +  in109 in010)) ( +  in105 in010)))  ( <  ( +  in96 ( +  in109 in010)) ( +  in106 in010)))  ( <  ( +  in97 ( +  in109 in010)) ( +  in107 in010)))  ( <  ( +  in98 ( +  in109 in010)) ( +  in108 in010)))  ( <  ( +  in92 ( +  in109 in010)) ( +  in91 ( +  in109 in010))))  ( <  ( +  in93 ( +  in109 in010)) ( +  in92 ( +  in109 in010))))  ( <  ( +  in94 ( +  in109 in010)) ( +  in93 ( +  in109 in010))))  ( <  ( +  in95 ( +  in109 in010)) ( +  in94 ( +  in109 in010))))  ( <  ( +  in96 ( +  in109 in010)) ( +  in95 ( +  in109 in010))))  ( <  ( +  in97 ( +  in109 in010)) ( +  in96 ( +  in109 in010))))  ( <  ( +  in98 ( +  in109 in010)) ( +  in97 ( +  in109 in010))))  ( <  ( +  in81 ( +  in98 ( +  in109 in010))) ( +  in91 ( +  in109 in010))))  ( <  ( +  in82 ( +  in98 ( +  in109 in010))) ( +  in92 ( +  in109 in010))))  ( <  ( +  in83 ( +  in98 ( +  in109 in010))) ( +  in93 ( +  in109 in010))))  ( <  ( +  in84 ( +  in98 ( +  in109 in010))) ( +  in94 ( +  in109 in010))))  ( <  ( +  in85 ( +  in98 ( +  in109 in010))) ( +  in95 ( +  in109 in010))))  ( <  ( +  in86 ( +  in98 ( +  in109 in010))) ( +  in96 ( +  in109 in010))))  ( <  ( +  in87 ( +  in98 ( +  in109 in010))) ( +  in97 ( +  in109 in010))))  ( <  ( +  in82 ( +  in98 ( +  in109 in010))) ( +  in81 ( +  in98 ( +  in109 in010)))))  ( <  ( +  in83 ( +  in98 ( +  in109 in010))) ( +  in82 ( +  in98 ( +  in109 in010)))))  ( <  ( +  in84 ( +  in98 ( +  in109 in010))) ( +  in83 ( +  in98 ( +  in109 in010)))))  ( <  ( +  in85 ( +  in98 ( +  in109 in010))) ( +  in84 ( +  in98 ( +  in109 in010)))))  ( <  ( +  in86 ( +  in98 ( +  in109 in010))) ( +  in85 ( +  in98 ( +  in109 in010)))))  ( <  ( +  in87 ( +  in98 ( +  in109 in010))) ( +  in86 ( +  in98 ( +  in109 in010)))))  ( <  ( +  in71 ( +  in87 ( +  in98 ( +  in109 in010)))) ( +  in81 ( +  in98 ( +  in109 in010)))))  ( <  ( +  in72 ( +  in87 ( +  in98 ( +  in109 in010)))) ( +  in82 ( +  in98 ( +  in109 in010)))))  ( <  ( +  in73 ( +  in87 ( +  in98 ( +  in109 in010)))) ( +  in83 ( +  in98 ( +  in109 in010)))))  ( <  ( +  in74 ( +  in87 ( +  in98 ( +  in109 in010)))) ( +  in84 ( +  in98 ( +  in109 in010)))))  ( <  ( +  in75 ( +  in87 ( +  in98 ( +  in109 in010)))) ( +  in85 ( +  in98 ( +  in109 in010)))))  ( <  ( +  in76 ( +  in87 ( +  in98 ( +  in109 in010)))) ( +  in86 ( +  in98 ( +  in109 in010)))))  ( <  ( +  in72 ( +  in87 ( +  in98 ( +  in109 in010)))) ( +  in71 ( +  in87 ( +  in98 ( +  in109 in010))))))  ( <  ( +  in73 ( +  in87 ( +  in98 ( +  in109 in010)))) ( +  in72 ( +  in87 ( +  in98 ( +  in109 in010))))))  ( <  ( +  in74 ( +  in87 ( +  in98 ( +  in109 in010)))) ( +  in73 ( +  in87 ( +  in98 ( +  in109 in010))))))  ( <  ( +  in75 ( +  in87 ( +  in98 ( +  in109 in010)))) ( +  in74 ( +  in87 ( +  in98 ( +  in109 in010))))))  ( <  ( +  in76 ( +  in87 ( +  in98 ( +  in109 in010)))) ( +  in75 ( +  in87 ( +  in98 ( +  in109 in010))))))  ( <  ( +  in61 ( +  in76 ( +  in87 ( +  in98 ( +  in109 in010))))) ( +  in71 ( +  in87 ( +  in98 ( +  in109 in010))))))  ( <  ( +  in62 ( +  in76 ( +  in87 ( +  in98 ( +  in109 in010))))) ( +  in72 ( +  in87 ( +  in98 ( +  in109 in010))))))  ( <  ( +  in63 ( +  in76 ( +  in87 ( +  in98 ( +  in109 in010))))) ( +  in73 ( +  in87 ( +  in98 ( +  in109 in010))))))  ( <  ( +  in64 ( +  in76 ( +  in87 ( +  in98 ( +  in109 in010))))) ( +  in74 ( +  in87 ( +  in98 ( +  in109 in010))))))  ( <  ( +  in65 ( +  in76 ( +  in87 ( +  in98 ( +  in109 in010))))) ( +  in75 ( +  in87 ( +  in98 ( +  in109 in010))))))  ( <  ( +  in62 ( +  in76 ( +  in87 ( +  in98 ( +  in109 in010))))) ( +  in61 ( +  in76 ( +  in87 ( +  in98 ( +  in109 in010)))))))  ( <  ( +  in63 ( +  in76 ( +  in87 ( +  in98 ( +  in109 in010))))) ( +  in62 ( +  in76 ( +  in87 ( +  in98 ( +  in109 in010)))))))  ( <  ( +  in64 ( +  in76 ( +  in87 ( +  in98 ( +  in109 in010))))) ( +  in63 ( +  in76 ( +  in87 ( +  in98 ( +  in109 in010)))))))  ( <  ( +  in65 ( +  in76 ( +  in87 ( +  in98 ( +  in109 in010))))) ( +  in64 ( +  in76 ( +  in87 ( +  in98 ( +  in109 in010)))))))  ( <  ( +  in51 ( +  in65 ( +  in76 ( +  in87 ( +  in98 ( +  in109 in010)))))) ( +  in61 ( +  in76 ( +  in87 ( +  in98 ( +  in109 in010)))))))  ( <  ( +  in52 ( +  in65 ( +  in76 ( +  in87 ( +  in98 ( +  in109 in010)))))) ( +  in62 ( +  in76 ( +  in87 ( +  in98 ( +  in109 in010)))))))  ( <  ( +  in53 ( +  in65 ( +  in76 ( +  in87 ( +  in98 ( +  in109 in010)))))) ( +  in63 ( +  in76 ( +  in87 ( +  in98 ( +  in109 in010)))))))  ( <  ( +  in54 ( +  in65 ( +  in76 ( +  in87 ( +  in98 ( +  in109 in010)))))) ( +  in64 ( +  in76 ( +  in87 ( +  in98 ( +  in109 in010)))))))  ( <  ( +  in52 ( +  in65 ( +  in76 ( +  in87 ( +  in98 ( +  in109 in010)))))) ( +  in51 ( +  in65 ( +  in76 ( +  in87 ( +  in98 ( +  in109 in010))))))))  ( <  ( +  in53 ( +  in65 ( +  in76 ( +  in87 ( +  in98 ( +  in109 in010)))))) ( +  in52 ( +  in65 ( +  in76 ( +  in87 ( +  in98 ( +  in109 in010))))))))  ( <  ( +  in54 ( +  in65 ( +  in76 ( +  in87 ( +  in98 ( +  in109 in010)))))) ( +  in53 ( +  in65 ( +  in76 ( +  in87 ( +  in98 ( +  in109 in010))))))))  ( <  ( +  in41 ( +  in54 ( +  in65 ( +  in76 ( +  in87 ( +  in98 ( +  in109 in010))))))) ( +  in51 ( +  in65 ( +  in76 ( +  in87 ( +  in98 ( +  in109 in010))))))))  ( <  ( +  in42 ( +  in54 ( +  in65 ( +  in76 ( +  in87 ( +  in98 ( +  in109 in010))))))) ( +  in52 ( +  in65 ( +  in76 ( +  in87 ( +  in98 ( +  in109 in010))))))))  ( <  ( +  in43 ( +  in54 ( +  in65 ( +  in76 ( +  in87 ( +  in98 ( +  in109 in010))))))) ( +  in53 ( +  in65 ( +  in76 ( +  in87 ( +  in98 ( +  in109 in010))))))))  ( <  ( +  in42 ( +  in54 ( +  in65 ( +  in76 ( +  in87 ( +  in98 ( +  in109 in010))))))) ( +  in41 ( +  in54 ( +  in65 ( +  in76 ( +  in87 ( +  in98 ( +  in109 in010)))))))))  ( <  ( +  in43 ( +  in54 ( +  in65 ( +  in76 ( +  in87 ( +  in98 ( +  in109 in010))))))) ( +  in42 ( +  in54 ( +  in65 ( +  in76 ( +  in87 ( +  in98 ( +  in109 in010)))))))))  ( <  ( +  in31 ( +  in43 ( +  in54 ( +  in65 ( +  in76 ( +  in87 ( +  in98 ( +  in109 in010)))))))) ( +  in41 ( +  in54 ( +  in65 ( +  in76 ( +  in87 ( +  in98 ( +  in109 in010)))))))))  ( <  ( +  in32 ( +  in43 ( +  in54 ( +  in65 ( +  in76 ( +  in87 ( +  in98 ( +  in109 in010)))))))) ( +  in42 ( +  in54 ( +  in65 ( +  in76 ( +  in87 ( +  in98 ( +  in109 in010)))))))))  ( <  ( +  in32 ( +  in43 ( +  in54 ( +  in65 ( +  in76 ( +  in87 ( +  in98 ( +  in109 in010)))))))) ( +  in31 ( +  in43 ( +  in54 ( +  in65 ( +  in76 ( +  in87 ( +  in98 ( +  in109 in010))))))))))  ( <  ( +  in21 ( +  in32 ( +  in43 ( +  in54 ( +  in65 ( +  in76 ( +  in87 ( +  in98 ( +  in109 in010))))))))) ( +  in31 ( +  in43 ( +  in54 ( +  in65 ( +  in76 ( +  in87 ( +  in98 ( +  in109 in010)))))))))))

(check-sat)
(get-model)